(set-logic QF_S)
(declare-fun var0 () String)
(declare-fun var1 () Int)
(declare-fun var2 () Bool)
(declare-fun var3 () String)
(declare-fun var4 () Int)
(declare-fun var5 () Bool)
(declare-fun var6 () String)
(declare-fun var7 () Int)
(declare-fun var8 () Bool)
(assert (<= (str.indexof (str.at "L3w.&GQ@2k" var7) (str.replace var6 var3 var0) (str.indexof "PZpM%6=O[b" var0 var1)) (str.len var6)))
(assert (<= var1 var7))
(assert (not (str.contains var3 var6)))
(assert (<= (str.indexof var6 var0 var1) (str.indexof var0 var3 var1)))
(check-sat)